NAME : CC45.1509101.tour
COMMENT : Cost = 0_1509101
COMMENT : Found by LKH [Keld Helsgaun] Sun Apr 23 15:14:36 2017
TYPE : TOUR
DIMENSION : 93
TOUR_SECTION
1
35
80
36
81
33
78
8
53
20
65
16
61
11
56
23
68
15
60
40
85
37
82
19
64
39
10
84
55
93
7
52
42
87
14
59
4
49
44
89
45
90
6
51
27
72
22
67
29
46
74
91
34
24
79
21
66
2
69
47
92
28
73
18
38
83
63
32
41
77
86
13
58
5
50
3
48
30
75
43
88
12
57
17
26
62
71
25
70
31
76
9
54
-1
EOF
